p cnf 12 48
-1 0
-2 0
-3 0
-4 0
9 0
10 0
11 0
12 0
-1 -2 3 4 0
1 2 -3 -4 0
-1 -3 2 4 0
1 3 -2 -4 0
-5 -6 7 8 0
5 6 -7 -8 0
-5 -7 6 8 0
5 7 -6 -8 0
-9 -10 11 12 0
9 10 -11 -12 0
-9 -11 10 12 0
9 11 -10 -12 0
-4 -8 0
4 8 0
-8 -12 0
8 12 0
-5 1 -6 2 0
-1 5 -6 2 0
-6 2 -7 3 0
-6 2 -3 7 0
-5 1 -2 6 0
-1 5 -2 6 0
-2 6 -7 3 0
-2 6 -3 7 0
-5 1 -7 3 0
-1 5 -7 3 0
-5 1 -3 7 0
-1 5 -3 7 0
-9 5 -10 6 0
-5 9 -10 6 0
-10 6 -11 7 0
-10 6 -7 11 0
-9 5 -6 10 0
-5 9 -6 10 0
-6 10 -11 7 0
-6 10 -7 11 0
-9 5 -11 7 0
-5 9 -11 7 0
-9 5 -7 11 0
-5 9 -7 11 0
